NAME: tsp40_5
COMMENT: 40-tsp problem (Padberg/Rinaldi)
TYPE: TSP
DIMENSION: 40
EDGE_WEIGHT_TYPE : EUC_2D
NODE_COORD_SECTION
1 28 21
2 26 32
3 0 23
4 33 23
5 13 0
6 36 15
7 32 12
8 3 26
9 35 34
10 24 4
11 22 28
12 36 0
13 28 26
14 25 24
15 17 4
16 31 9
17 12 3
18 27 2
19 3 5
20 31 40
21 36 4
22 18 5
23 35 7
24 8 9
25 31 21
26 33 7
27 28 20
28 22 14
29 34 29
30 22 17
31 14 6
32 5 36
33 28 31
34 16 33
35 30 16
36 12 37
37 39 40
38 3 23
39 21 17
40 21 18
